Minimize
  obj: x0 + x1 + x2 + x3 + x4 + x5 + x6 + x7 + x8

Subject To
  c0: x2 + x4 + x5 + x6 + x8 = 60
  c1: x1 + x5 = 32
  c2: x1 + x4 + x5 + x6 + x7 + x8 = 64
  c3: x0 + x1 + x4 + x5 + x6 + x7 = 71
  c4: x1 + x4 = 31
  c5: x1 + x4 + x6 = 32
  c6: x0 + x1 + x3 + x7 = 38
  c7: x3 + x4 + x5 + x6 = 43
  c8: x2 + x3 + x5 = 40

Bounds
  x0 >= 0
  x1 >= 0
  x2 >= 0
  x3 >= 0
  x4 >= 0
  x5 >= 0
  x6 >= 0
  x7 >= 0
  x8 >= 0

Generals
  x0 x1 x2 x3 x4 x5 x6 x7 x8

End
